################### GUROBI - Instance Number: 32 ###################


################### Instance Number: 32
Numero di nodi nella rete: 200
Numero di archi nella rete: 1968
Numero di Ordini: 300
########################### CREATION OF THE ILP MODEL ############################
Start TIME to creation of the model: 2016-07-17 09:03:48.818000
FINISH TIME to creation of the model: 2016-07-17 09:06:02.444000
Impiegati 133.625999928 secondi.
########################### WRITE THE LP MODEL ############################
############################ INIZIO A RISOLVERE IL PROBLEMA ##########################

Gurobi Optimizer version 6.5.1 build v6.5.1rc3 (win64)
Copyright (c) 2016, Gurobi Optimization, Inc.

Read LP format model from file C:\Users\lele\AppData\Local\Temp\156-pulp.lp
Reading time = 5.78 seconds
(null): 62268 rows, 590400 columns, 2361600 nonzeros
Optimize a model with 62268 rows, 590400 columns and 2361600 nonzeros
Coefficient statistics:
  Matrix range    [1e+00, 1e+01]
  Objective range [3e+01, 3e+03]
  Bounds range    [1e+00, 1e+00]
  RHS range       [1e+00, 2e+02]
Presolve removed 0 rows and 0 columns (presolve time = 5s) ...
Presolve time: 7.96s
Presolved: 62268 rows, 590400 columns, 2238300 nonzeros
Variable types: 0 continuous, 590400 integer (590400 binary)

Root simplex log...

Iteration    Objective       Primal Inf.    Dual Inf.      Time
       0    0.0000000e+00   6.000000e+02   0.000000e+00     12s
   10706    5.3864704e+05   7.306354e+01   0.000000e+00     15s
   11044    5.3880124e+05   0.000000e+00   0.000000e+00     16s

Root relaxation: objective 5.388012e+05, 11044 iterations, 4.67 seconds

    Nodes    |    Current Node    |     Objective Bounds      |     Work
 Expl Unexpl |  Obj  Depth IntInf | Incumbent    BestBd   Gap | It/Node Time

     0     0 538801.243    0  685          - 538801.243      -     -   17s
H    0     0                    551311.11850 538801.243  2.27%     -   23s
H    0     0                    547340.51500 538801.243  1.56%     -   50s
     0     0 544127.779    0  757 547340.515 544127.779  0.59%     -   58s
     0     0 544975.697    0  828 547340.515 544975.697  0.43%     -   82s
     0     0 545718.433    0  705 547340.515 545718.433  0.30%     -   97s
     0     0 546042.593    0  773 547340.515 546042.593  0.24%     -  101s
     0     0 546476.279    0 1009 547340.515 546476.279  0.16%     -  108s
     0     0 546476.279    0  680 547340.515 546476.279  0.16%     -  128s
     0     0 546476.279    0  792 547340.515 546476.279  0.16%     -  141s
     0     0 546476.279    0  897 547340.515 546476.279  0.16%     -  152s
     0     0 546476.279    0  892 547340.515 546476.279  0.16%     -  162s
     0     0 546562.658    0 1028 547340.515 546562.658  0.14%     -  164s
     0     0 546670.502    0  970 547340.515 546670.502  0.12%     -  168s
     0     0 546670.502    0  526 547340.515 546670.502  0.12%     -  178s
     0     0 546670.502    0  647 547340.515 546670.502  0.12%     -  186s
     0     0 546670.502    0  732 547340.515 546670.502  0.12%     -  188s
     0     0 546670.502    0  761 547340.515 546670.502  0.12%     -  191s
     0     0 546670.502    0  775 547340.515 546670.502  0.12%     -  193s
     0     0 546733.667    0  837 547340.515 546733.667  0.11%     -  195s
     0     0 546786.171    0  882 547340.515 546786.171  0.10%     -  199s
     0     0 546852.319    0  875 547340.515 546852.319  0.09%     -  201s
     0     0 546852.319    0  399 547340.515 546852.319  0.09%     -  207s
     0     0 546852.319    0  560 547340.515 546852.319  0.09%     -  209s
     0     0 546852.319    0  476 547340.515 546852.319  0.09%     -  212s
     0     0 546852.319    0  600 547340.515 546852.319  0.09%     -  214s
     0     0 546852.319    0  704 547340.515 546852.319  0.09%     -  214s
     0     0 546852.319    0  592 547340.515 546852.319  0.09%     -  215s
     0     0 546877.260    0  648 547340.515 546877.260  0.08%     -  217s
     0     0 546902.279    0  638 547340.515 546902.279  0.08%     -  218s
     0     0 546902.279    0  321 547340.515 546902.279  0.08%     -  221s
     0     0 546902.279    0  428 547340.515 546902.279  0.08%     -  223s
     0     0 546902.279    0  474 547340.515 546902.279  0.08%     -  225s
     0     0 546902.279    0  514 547340.515 546902.279  0.08%     -  226s
     0     0 546902.279    0  616 547340.515 546902.279  0.08%     -  226s
     0     0 546902.279    0  620 547340.515 546902.279  0.08%     -  227s
     0     0 546902.279    0  664 547340.515 546902.279  0.08%     -  230s
     0     0 546920.968    0  663 547340.515 546920.968  0.08%     -  232s
     0     0 546937.003    0  571 547340.515 546937.003  0.07%     -  234s
     0     0 546943.053    0  619 547340.515 546943.053  0.07%     -  234s
     0     0 546943.053    0  260 547340.515 546943.053  0.07%     -  236s
     0     0 546943.053    0  357 547340.515 546943.053  0.07%     -  237s
     0     0 546943.053    0  396 547340.515 546943.053  0.07%     -  238s
     0     0 546943.053    0  484 547340.515 546943.053  0.07%     -  239s
     0     0 546943.053    0  451 547340.515 546943.053  0.07%     -  240s
     0     0 546943.053    0  495 547340.515 546943.053  0.07%     -  241s
     0     0 546946.378    0  541 547340.515 546946.378  0.07%     -  241s
     0     0 546958.090    0  449 547340.515 546958.090  0.07%     -  241s
     0     0 546966.017    0  474 547340.515 546966.017  0.07%     -  242s
     0     0 546973.165    0  479 547340.515 546973.165  0.07%     -  242s
     0     0 546982.948    0  617 547340.515 546982.948  0.07%     -  242s
     0     0 546988.248    0  511 547340.515 546988.248  0.06%     -  243s
     0     0 546988.248    0  243 547340.515 546988.248  0.06%     -  244s
     0     0 546988.248    0  341 547340.515 546988.248  0.06%     -  245s
     0     0 546988.248    0  371 547340.515 546988.248  0.06%     -  246s
     0     0 546988.248    0  393 547340.515 546988.248  0.06%     -  246s
     0     0 546988.248    0  486 547340.515 546988.248  0.06%     -  247s
     0     0 546988.248    0  488 547340.515 546988.248  0.06%     -  247s
     0     0 546989.032    0  457 547340.515 546989.032  0.06%     -  248s
     0     0 547019.570    0  540 547340.515 547019.570  0.06%     -  248s
     0     0 547023.337    0  392 547340.515 547023.337  0.06%     -  248s
     0     0 547030.252    0  531 547340.515 547030.252  0.06%     -  248s
     0     0 547030.252    0  231 547340.515 547030.252  0.06%     -  250s
     0     0 547030.252    0  316 547340.515 547030.252  0.06%     -  250s
     0     0 547030.252    0  312 547340.515 547030.252  0.06%     -  251s
     0     0 547030.252    0  398 547340.515 547030.252  0.06%     -  251s
     0     0 547030.252    0  400 547340.515 547030.252  0.06%     -  251s
     0     0 547030.252    0  463 547340.515 547030.252  0.06%     -  252s
     0     0 547033.321    0  421 547340.515 547033.321  0.06%     -  252s
     0     0 547048.472    0  479 547340.515 547048.472  0.05%     -  252s
     0     0 547055.737    0  315 547340.515 547055.737  0.05%     -  252s
     0     0 547059.657    0  460 547340.515 547059.657  0.05%     -  253s
     0     0 547059.657    0  226 547340.515 547059.657  0.05%     -  254s
     0     0 547059.657    0  291 547340.515 547059.657  0.05%     -  254s
     0     0 547059.657    0  286 547340.515 547059.657  0.05%     -  254s
     0     0 547059.657    0  284 547340.515 547059.657  0.05%     -  255s
     0     0 547059.657    0  342 547340.515 547059.657  0.05%     -  255s
     0     0 547059.657    0  346 547340.515 547059.657  0.05%     -  255s
     0     0 547059.657    0  423 547340.515 547059.657  0.05%     -  255s
     0     0 547059.657    0  421 547340.515 547059.657  0.05%     -  255s
     0     0 547059.657    0  332 547340.515 547059.657  0.05%     -  256s
     0     0 547075.705    0  400 547340.515 547075.705  0.05%     -  256s
     0     0 547085.175    0  401 547340.515 547085.175  0.05%     -  257s
     0     0 547089.041    0  426 547340.515 547089.041  0.05%     -  257s
     0     0 547089.041    0  213 547340.515 547089.041  0.05%     -  258s
     0     0 547089.041    0  271 547340.515 547089.041  0.05%     -  258s
     0     0 547089.041    0  244 547340.515 547089.041  0.05%     -  258s
     0     0 547089.041    0  338 547340.515 547089.041  0.05%     -  258s
     0     0 547089.041    0  317 547340.515 547089.041  0.05%     -  258s
     0     0 547089.041    0  377 547340.515 547089.041  0.05%     -  259s
     0     0 547089.041    0  387 547340.515 547089.041  0.05%     -  259s
     0     0 547089.041    0  392 547340.515 547089.041  0.05%     -  260s
     0     0 547089.540    0  380 547340.515 547089.540  0.05%     -  260s
     0     0 547091.641    0  380 547340.515 547091.641  0.05%     -  260s
     0     0 547091.794    0  384 547340.515 547091.794  0.05%     -  260s
     0     0 547092.377    0  298 547340.515 547092.377  0.05%     -  260s
     0     0 547092.449    0  379 547340.515 547092.449  0.05%     -  260s
     0     0 547092.565    0  389 547340.515 547092.565  0.05%     -  260s
     0     0 547092.756    0  363 547340.515 547092.756  0.05%     -  260s
     0     0 547096.804    0  434 547340.515 547096.804  0.04%     -  260s
     0     0 547096.804    0  201 547340.515 547096.804  0.04%     -  261s
     0     0 547096.804    0  285 547340.515 547096.804  0.04%     -  261s
     0     0 547096.804    0  261 547340.515 547096.804  0.04%     -  262s
     0     0 547096.804    0  323 547340.515 547096.804  0.04%     -  262s
     0     0 547096.804    0  307 547340.515 547096.804  0.04%     -  262s
     0     0 547096.804    0  356 547340.515 547096.804  0.04%     -  262s
     0     0 547096.804    0  287 547340.515 547096.804  0.04%     -  262s
     0     0 547096.804    0  313 547340.515 547096.804  0.04%     -  263s
     0     0 547103.222    0  400 547340.515 547103.222  0.04%     -  263s
     0     0 547109.641    0  335 547340.515 547109.641  0.04%     -  263s
     0     0 547112.008    0  413 547340.515 547112.008  0.04%     -  263s
     0     0 547113.172    0  333 547340.515 547113.172  0.04%     -  264s
     0     0 547113.172    0  333 547340.515 547113.172  0.04%     -  264s
     0     0 547113.172    0  190 547340.515 547113.172  0.04%     -  264s
     0     0 547113.172    0  252 547340.515 547113.172  0.04%     -  265s
     0     0 547113.172    0  271 547340.515 547113.172  0.04%     -  265s
     0     0 547113.172    0  303 547340.515 547113.172  0.04%     -  265s
     0     0 547113.172    0  328 547340.515 547113.172  0.04%     -  265s
     0     0 547113.172    0  355 547340.515 547113.172  0.04%     -  265s
     0     0 547113.172    0  389 547340.515 547113.172  0.04%     -  265s
     0     0 547113.172    0  280 547340.515 547113.172  0.04%     -  266s
     0     0 547113.172    0  294 547340.515 547113.172  0.04%     -  266s
     0     0 547119.268    0  399 547340.515 547119.268  0.04%     -  266s
     0     0 547120.915    0  322 547340.515 547120.915  0.04%     -  266s
     0     0 547127.024    0  414 547340.515 547127.024  0.04%     -  266s
     0     0 547127.024    0  185 547340.515 547127.024  0.04%     -  266s
     0     0 547127.024    0  246 547340.515 547127.024  0.04%     -  267s
     0     0 547127.024    0  257 547340.515 547127.024  0.04%     -  267s
     0     0 547127.024    0  333 547340.515 547127.024  0.04%     -  267s
     0     0 547127.024    0  314 547340.515 547127.024  0.04%     -  267s
     0     0 547127.024    0  292 547340.515 547127.024  0.04%     -  267s
     0     0 547127.024    0  360 547340.515 547127.024  0.04%     -  267s
     0     0 547127.024    0  357 547340.515 547127.024  0.04%     -  268s
     0     0 547127.024    0  392 547340.515 547127.024  0.04%     -  268s
     0     0 547127.085    0  387 547340.515 547127.085  0.04%     -  268s
     0     0 547128.409    0  402 547340.515 547128.409  0.04%     -  268s
     0     0 547128.870    0  404 547340.515 547128.870  0.04%     -  268s
     0     2 547128.870    0  404 547340.515 547128.870  0.04%     -  268s

Cutting planes:
  Gomory: 2
  Cover: 159
  Clique: 21
  MIR: 97
  GUB cover: 34
  Mod-K: 1

Explored 300 nodes (93564 simplex iterations) in 269.50 seconds
Thread count was 8 (of 8 available processors)

Optimal solution found (tolerance 1.00e-04)
Best objective 5.473405150000e+05, best bound 5.473405150000e+05, gap 0.0%

Wrote result file 'C:\Users\lele\AppData\Local\Temp\156-pulp.sol'

('Status:', 'Optimal')
('Total Cost of Ingredients per can = ', 547340.5149999999)
